p cnf 129 439
3 -1 0
3 2 0
1 -2 -3 0
5 -4 0
5 -2 0
4 2 -5 0
5 -6 -7 0
-5 6 -7 0
5 6 7 0
-5 -6 7 0
-8 9 -10 0
8 -9 -10 0
-8 -9 10 0
8 9 10 0
10 11 -12 0
-10 -11 -12 0
10 -11 12 0
-10 11 12 0
-14 12 0
-14 13 0
-12 -13 14 0
-7 14 -15 0
7 -14 -15 0
-7 -14 15 0
7 14 15 0
16 -3 0
16 15 0
3 -15 -16 0
17 1 -18 0
-17 -1 -18 0
17 -1 18 0
-17 1 18 0
-19 2 0
-19 -18 0
-2 18 19 0
20 19 0
20 -3 0
-19 3 -20 0
21 -22 -23 0
-21 22 -23 0
21 22 23 0
-21 -22 23 0
-2 23 -24 0
2 -23 -24 0
-2 -23 24 0
2 23 24 0
25 2 0
25 -17 0
-2 17 -25 0
-10 25 -26 0
10 -25 -26 0
-10 -25 26 0
10 25 26 0
27 -24 0
27 26 0
24 -26 -27 0
-28 -27 0
-28 10 0
27 -10 28 0
6 -19 -29 0
-6 19 -29 0
6 19 29 0
-6 -19 29 0
-31 -30 0
-31 -17 0
30 17 31 0
32 -29 0
32 -31 0
29 31 -32 0
-34 -12 0
-34 -33 0
12 33 34 0
-32 -34 -35 0
32 34 -35 0
-32 34 35 0
32 -34 35 0
-35 30 -36 0
35 -30 -36 0
-35 -30 36 0
35 30 36 0
37 -13 -38 0
-37 13 -38 0
37 13 38 0
-37 -13 38 0
-39 38 0
-39 -9 0
-38 9 39 0
-40 -36 0
-40 -39 0
36 39 40 0
40 -17 -41 0
-40 17 -41 0
40 17 41 0
-40 -17 41 0
42 -28 0
42 -41 0
28 41 -42 0
43 20 0
43 -42 0
-20 42 -43 0
44 -16 0
44 43 0
16 -43 -44 0
37 13 -45 0
-37 -13 -45 0
37 -13 45 0
-37 13 45 0
-46 -33 0
-46 13 0
33 -13 46 0
-47 46 0
-47 1 0
-46 -1 47 0
-48 -25 0
-48 11 0
25 -11 48 0
-47 -48 -49 0
47 48 -49 0
-47 48 49 0
47 -48 49 0
3 -49 -50 0
-3 49 -50 0
3 49 50 0
-3 -49 50 0
-45 -50 -51 0
45 50 -51 0
-45 50 51 0
45 -50 51 0
21 -39 -52 0
-21 39 -52 0
21 39 52 0
-21 -39 52 0
54 -53 0
54 -7 0
53 7 -54 0
22 17 -55 0
-22 -17 -55 0
22 -17 55 0
-22 17 55 0
-56 -55 0
-56 -12 0
55 12 56 0
-57 33 0
-57 -12 0
-33 12 57 0
-58 -57 0
-58 11 0
57 -11 58 0
59 56 0
59 58 0
-56 -58 -59 0
-60 -54 0
-60 -59 0
54 59 60 0
61 52 0
61 -60 0
-52 60 -61 0
51 -61 -62 0
-51 61 -62 0
51 61 62 0
-51 -61 62 0
63 -44 0
63 -62 0
44 62 -63 0
-6 21 -64 0
6 -21 -64 0
-6 -21 64 0
6 21 64 0
-9 64 -65 0
9 -64 -65 0
-9 -64 65 0
9 64 65 0
-21 -65 -66 0
21 65 -66 0
-21 65 66 0
21 -65 66 0
-67 -5 0
-67 -38 0
5 38 67 0
-68 -66 0
-68 67 0
66 -67 68 0
-38 68 -69 0
38 -68 -69 0
-38 -68 69 0
38 68 69 0
-70 12 0
-70 -25 0
-12 25 70 0
71 21 0
71 46 0
-21 -46 -71 0
72 -64 0
72 71 0
64 -71 -72 0
-73 70 0
-73 72 0
-70 -72 73 0
74 -69 0
74 -73 0
69 73 -74 0
75 27 0
75 -39 0
-27 39 -75 0
-76 74 0
-76 -75 0
-74 75 76 0
-77 -1 0
-77 70 0
1 -70 77 0
-78 -77 0
-78 -4 0
77 4 78 0
79 -77 0
79 -78 0
77 78 -79 0
-80 -14 0
-80 71 0
14 -71 80 0
81 -4 0
81 -12 0
4 12 -81 0
-80 81 -82 0
80 -81 -82 0
-80 -81 82 0
80 81 82 0
82 83 -84 0
-82 -83 -84 0
82 -83 84 0
-82 83 84 0
-85 -47 0
-85 22 0
47 -22 85 0
-86 -84 0
-86 -85 0
84 85 86 0
-87 -3 0
-87 18 0
3 -18 87 0
-88 -86 0
-88 87 0
86 -87 88 0
79 88 -89 0
-79 -88 -89 0
79 -88 89 0
-79 88 89 0
76 89 -90 0
-76 -89 -90 0
76 -89 90 0
-76 89 90 0
-91 63 0
-91 -90 0
-63 90 91 0
-92 -1 0
-92 -10 0
1 10 92 0
-93 -12 0
-93 -8 0
12 8 93 0
-46 -93 -94 0
46 93 -94 0
-46 93 94 0
46 -93 94 0
95 21 0
95 9 0
-21 -9 -95 0
-94 95 -96 0
94 -95 -96 0
-94 -95 96 0
94 95 96 0
97 92 0
97 -96 0
-92 96 -97 0
46 -2 -98 0
-46 2 -98 0
46 2 98 0
-46 -2 98 0
99 98 0
99 -3 0
-98 3 -99 0
32 -100 0
-32 -100 0
101 99 0
101 -100 0
-99 100 -101 0
-102 97 0
-102 -101 0
-97 101 102 0
-103 -70 0
-103 13 0
70 -13 103 0
-66 34 -104 0
66 -34 -104 0
-66 -34 104 0
66 34 104 0
65 -104 -105 0
-65 104 -105 0
65 104 105 0
-65 -104 105 0
-106 103 0
-106 105 0
-103 -105 106 0
-107 102 0
-107 -106 0
-102 106 107 0
108 19 0
108 -23 0
-19 23 -108 0
-109 -12 0
-109 -24 0
12 24 109 0
-110 108 0
-110 109 0
-108 -109 110 0
21 81 -111 0
-21 -81 -111 0
21 -81 111 0
-21 81 111 0
112 8 0
112 -67 0
-8 67 -112 0
55 -46 -113 0
-55 46 -113 0
55 46 113 0
-55 -46 113 0
-114 -112 0
-114 113 0
112 -113 114 0
115 111 0
115 -114 0
-111 114 -115 0
-116 110 0
-116 115 0
-110 -115 116 0
-107 116 -117 0
107 -116 -117 0
-107 -116 117 0
107 116 117 0
91 117 -118 0
-91 -117 -118 0
91 -117 118 0
-91 117 118 0
119 -48 0
119 14 0
48 -14 -119 0
119 38 -120 0
-119 -38 -120 0
119 -38 120 0
-119 38 120 0
121 81 0
121 -120 0
-81 120 -121 0
21 22 -122 0
-21 -22 -122 0
21 -22 122 0
-21 22 122 0
122 64 -123 0
-122 -64 -123 0
122 -64 123 0
-122 64 123 0
-37 -30 -124 0
37 30 -124 0
-37 30 124 0
37 -30 124 0
18 -6 -125 0
-18 6 -125 0
18 6 125 0
-18 -6 125 0
124 125 -126 0
-124 -125 -126 0
124 -125 126 0
-124 125 126 0
-127 -123 0
-127 -126 0
123 126 127 0
-128 121 0
-128 -127 0
-121 127 128 0
129 118 0
129 -128 0
-118 128 -129 0
13 -44 -54 11 81 29 0
57 -11 52 123 0
32 -16 33 100 0
-62 6 0
-57 55 0
-74 127 14 78 -49 0
-52 -54 21 100 -71 0
37 -78 -110 113 -98 0
-20 125 5 0
100 119 104 0
-9 -78 110 -103 88 0
45 77 -9 0
-70 83 -102 -38 0
-65 9 29 -117 2 0
-35 -71 -123 -107 8 0
-115 110 -52 -128 111 0
-120 13 0
116 -19 0
-62 -6 116 0
-89 -57 0
-78 -25 118 0
87 54 -21 28 -18 0
3 124 -104 0
123 121 -96 -30 68 0
-29 -45 36 -114 9 0
-107 54 -93 -86 0
-18 -23 -125 -53 0
51 21 73 0
89 -98 -90 0
-128 -67 6 -61 0
-80 76 15 40 -93 -128 0
-4 -97 -40 -119 25 0
-22 27 100 66 72 0
-59 6 67 -125 0
-33 -27 -65 -75 0
30 85 0
33 -86 67 -96 -113 87 0
3 -114 -58 -60 -97 55 0
95 -108 -74 49 118 0
-72 -4 0
-101 -86 64 5 -125 -68 0
-1 -45 -119 3 126 0
42 116 -52 0
-93 33 -115 0
-55 -82 71 0
-99 -113 7 53 0
-102 38 4 -123 0
-20 -93 63 -72 0
-24 -119 0
-125 13 1 -95 84 0
-122 -50 47 -72 0
-21 31 -83 -26 -74 -67 0
-32 -108 109 89 -126 0
100 106 107 -113 -23 -53 0
-14 9 0
-55 -77 -11 51 0
19 62 34 -2 0
129 0
